\ Model maxClique
\ LP format - for model browsing. Use MPS format to capture full model detail.
Minimize
- C0 - C1 - C2 - C3 - C4 - C5 - C6 - C7 - C8 - C9
   + C10 + C11 + C12 + C13 + C14 + C15 + C16 + C17 + C18
   + C19 + C20 + C21 + C22 + C23 + C24 + C25 + C26 + C27
   + C28 + C29 + C30 + C31 + C32 + C33 + C34 + C35 + C36
   + C37 + C38 + C39 + C40 + C41 + C42 + C43 + C44 + C45
   + C46 + C47 + C48 + C49 + C50 + C51 + C52 + C53 + C54
   + C55
Subject To
  C0 + C1 <= 1
  C1 + C2 <= 1
  C1 + C3 <= 1
  C0 + C4 <= 1
  C2 + C4 <= 1
  C3 + C4 <= 1
  C0 + C5 <= 1
  C1 + C5 <= 1
  C2 + C5 <= 1
  C3 + C5 <= 1
  C4 + C5 <= 1
  C0 + C6 <= 1
  C2 + C6 <= 1
  C3 + C6 <= 1
  C5 + C6 <= 1
  C0 + C7 <= 1
  C2 + C7 <= 1
  C3 + C7 <= 1
  C5 + C7 <= 1
  C1 + C8 <= 1
  C4 + C8 <= 1
  C5 + C8 <= 1
  C6 + C8 <= 1
  C7 + C8 <= 1
  C1 + C9 <= 1
  C4 + C9 <= 1
  C5 + C9 <= 1
  C6 + C9 <= 1
  C7 + C9 <= 1
  C0 + C10 <= 1
  C1 + C10 <= 1
  C2 + C10 <= 1
  C3 + C10 <= 1
  C4 + C10 <= 1
  C5 + C10 <= 1
  C6 + C10 <= 1
  C7 + C10 <= 1
  C8 + C10 <= 1
  C9 + C10 <= 1
  C0 + C11 <= 1
  C2 + C11 <= 1
  C3 + C11 <= 1
  C5 + C11 <= 1
  C8 + C11 <= 1
  C9 + C11 <= 1
  C10 + C11 <= 1
  C1 + C12 <= 1
  C4 + C12 <= 1
  C5 + C12 <= 1
  C6 + C12 <= 1
  C7 + C12 <= 1
  C10 + C12 <= 1
  C11 + C12 <= 1
  C0 + C13 <= 1
  C1 + C13 <= 1
  C2 + C13 <= 1
  C3 + C13 <= 1
  C4 + C13 <= 1
  C6 + C13 <= 1
  C7 + C13 <= 1
  C8 + C13 <= 1
  C9 + C13 <= 1
  C10 + C13 <= 1
  C11 + C13 <= 1
  C12 + C13 <= 1
  C1 + C14 <= 1
  C4 + C14 <= 1
  C5 + C14 <= 1
  C6 + C14 <= 1
  C7 + C14 <= 1
  C10 + C14 <= 1
  C11 + C14 <= 1
  C13 + C14 <= 1
  C1 + C15 <= 1
  C4 + C15 <= 1
  C5 + C15 <= 1
  C6 + C15 <= 1
  C7 + C15 <= 1
  C10 + C15 <= 1
  C11 + C15 <= 1
  C13 + C15 <= 1
  C1 + C16 <= 1
  C4 + C16 <= 1
  C5 + C16 <= 1
  C6 + C16 <= 1
  C7 + C16 <= 1
  C10 + C16 <= 1
  C11 + C16 <= 1
  C13 + C16 <= 1
  C1 + C17 <= 1
  C4 + C17 <= 1
  C5 + C17 <= 1
  C6 + C17 <= 1
  C7 + C17 <= 1
  C10 + C17 <= 1
  C11 + C17 <= 1
  C13 + C17 <= 1
  C1 + C18 <= 1
  C4 + C18 <= 1
  C5 + C18 <= 1
  C6 + C18 <= 1
  C7 + C18 <= 1
  C10 + C18 <= 1
  C11 + C18 <= 1
  C13 + C18 <= 1
  C0 + C19 <= 1
  C1 + C19 <= 1
  C2 + C19 <= 1
  C3 + C19 <= 1
  C4 + C19 <= 1
  C5 + C19 <= 1
  C6 + C19 <= 1
  C7 + C19 <= 1
  C8 + C19 <= 1
  C9 + C19 <= 1
  C11 + C19 <= 1
  C12 + C19 <= 1
  C13 + C19 <= 1
  C14 + C19 <= 1
  C15 + C19 <= 1
  C16 + C19 <= 1
  C17 + C19 <= 1
  C18 + C19 <= 1
  C1 + C20 <= 1
  C4 + C20 <= 1
  C5 + C20 <= 1
  C6 + C20 <= 1
  C7 + C20 <= 1
  C10 + C20 <= 1
  C11 + C20 <= 1
  C13 + C20 <= 1
  C19 + C20 <= 1
  C1 + C21 <= 1
  C4 + C21 <= 1
  C5 + C21 <= 1
  C6 + C21 <= 1
  C7 + C21 <= 1
  C10 + C21 <= 1
  C11 + C21 <= 1
  C13 + C21 <= 1
  C19 + C21 <= 1
  C0 + C22 <= 1
  C1 + C22 <= 1
  C2 + C22 <= 1
  C3 + C22 <= 1
  C4 + C22 <= 1
  C5 + C22 <= 1
  C6 + C22 <= 1
  C7 + C22 <= 1
  C8 + C22 <= 1
  C9 + C22 <= 1
  C11 + C22 <= 1
  C12 + C22 <= 1
  C13 + C22 <= 1
  C14 + C22 <= 1
  C15 + C22 <= 1
  C16 + C22 <= 1
  C17 + C22 <= 1
  C18 + C22 <= 1
  C20 + C22 <= 1
  C21 + C22 <= 1
  C1 + C23 <= 1
  C4 + C23 <= 1
  C5 + C23 <= 1
  C6 + C23 <= 1
  C7 + C23 <= 1
  C10 + C23 <= 1
  C11 + C23 <= 1
  C13 + C23 <= 1
  C19 + C23 <= 1
  C22 + C23 <= 1
  C0 + C24 <= 1
  C1 + C24 <= 1
  C2 + C24 <= 1
  C3 + C24 <= 1
  C4 + C24 <= 1
  C6 + C24 <= 1
  C7 + C24 <= 1
  C8 + C24 <= 1
  C9 + C24 <= 1
  C10 + C24 <= 1
  C11 + C24 <= 1
  C12 + C24 <= 1
  C14 + C24 <= 1
  C15 + C24 <= 1
  C16 + C24 <= 1
  C17 + C24 <= 1
  C18 + C24 <= 1
  C19 + C24 <= 1
  C20 + C24 <= 1
  C21 + C24 <= 1
  C22 + C24 <= 1
  C23 + C24 <= 1
  C1 + C25 <= 1
  C4 + C25 <= 1
  C5 + C25 <= 1
  C6 + C25 <= 1
  C7 + C25 <= 1
  C10 + C25 <= 1
  C11 + C25 <= 1
  C13 + C25 <= 1
  C19 + C25 <= 1
  C22 + C25 <= 1
  C24 + C25 <= 1
  C1 + C26 <= 1
  C4 + C26 <= 1
  C5 + C26 <= 1
  C6 + C26 <= 1
  C7 + C26 <= 1
  C10 + C26 <= 1
  C11 + C26 <= 1
  C13 + C26 <= 1
  C19 + C26 <= 1
  C22 + C26 <= 1
  C24 + C26 <= 1
  C0 + C27 <= 1
  C2 + C27 <= 1
  C3 + C27 <= 1
  C5 + C27 <= 1
  C8 + C27 <= 1
  C9 + C27 <= 1
  C10 + C27 <= 1
  C12 + C27 <= 1
  C13 + C27 <= 1
  C14 + C27 <= 1
  C15 + C27 <= 1
  C16 + C27 <= 1
  C17 + C27 <= 1
  C18 + C27 <= 1
  C19 + C27 <= 1
  C20 + C27 <= 1
  C21 + C27 <= 1
  C22 + C27 <= 1
  C23 + C27 <= 1
  C24 + C27 <= 1
  C25 + C27 <= 1
  C26 + C27 <= 1
  C1 + C28 <= 1
  C4 + C28 <= 1
  C5 + C28 <= 1
  C6 + C28 <= 1
  C7 + C28 <= 1
  C10 + C28 <= 1
  C11 + C28 <= 1
  C13 + C28 <= 1
  C19 + C28 <= 1
  C22 + C28 <= 1
  C24 + C28 <= 1
  C27 + C28 <= 1
  C1 + C29 <= 1
  C4 + C29 <= 1
  C5 + C29 <= 1
  C6 + C29 <= 1
  C7 + C29 <= 1
  C10 + C29 <= 1
  C11 + C29 <= 1
  C13 + C29 <= 1
  C19 + C29 <= 1
  C22 + C29 <= 1
  C24 + C29 <= 1
  C27 + C29 <= 1
  C0 + C30 <= 1
  C2 + C30 <= 1
  C3 + C30 <= 1
  C5 + C30 <= 1
  C8 + C30 <= 1
  C9 + C30 <= 1
  C10 + C30 <= 1
  C12 + C30 <= 1
  C13 + C30 <= 1
  C14 + C30 <= 1
  C15 + C30 <= 1
  C16 + C30 <= 1
  C17 + C30 <= 1
  C18 + C30 <= 1
  C19 + C30 <= 1
  C20 + C30 <= 1
  C21 + C30 <= 1
  C22 + C30 <= 1
  C23 + C30 <= 1
  C24 + C30 <= 1
  C25 + C30 <= 1
  C26 + C30 <= 1
  C28 + C30 <= 1
  C29 + C30 <= 1
  C1 + C31 <= 1
  C4 + C31 <= 1
  C5 + C31 <= 1
  C6 + C31 <= 1
  C7 + C31 <= 1
  C10 + C31 <= 1
  C11 + C31 <= 1
  C13 + C31 <= 1
  C19 + C31 <= 1
  C22 + C31 <= 1
  C24 + C31 <= 1
  C27 + C31 <= 1
  C30 + C31 <= 1
  C0 + C32 <= 1
  C1 + C32 <= 1
  C2 + C32 <= 1
  C3 + C32 <= 1
  C4 + C32 <= 1
  C5 + C32 <= 1
  C6 + C32 <= 1
  C7 + C32 <= 1
  C8 + C32 <= 1
  C9 + C32 <= 1
  C11 + C32 <= 1
  C12 + C32 <= 1
  C13 + C32 <= 1
  C14 + C32 <= 1
  C15 + C32 <= 1
  C16 + C32 <= 1
  C17 + C32 <= 1
  C18 + C32 <= 1
  C20 + C32 <= 1
  C21 + C32 <= 1
  C23 + C32 <= 1
  C24 + C32 <= 1
  C25 + C32 <= 1
  C26 + C32 <= 1
  C27 + C32 <= 1
  C28 + C32 <= 1
  C29 + C32 <= 1
  C30 + C32 <= 1
  C31 + C32 <= 1
  C0 + C33 <= 1
  C2 + C33 <= 1
  C3 + C33 <= 1
  C5 + C33 <= 1
  C8 + C33 <= 1
  C9 + C33 <= 1
  C10 + C33 <= 1
  C12 + C33 <= 1
  C13 + C33 <= 1
  C14 + C33 <= 1
  C15 + C33 <= 1
  C16 + C33 <= 1
  C17 + C33 <= 1
  C18 + C33 <= 1
  C19 + C33 <= 1
  C20 + C33 <= 1
  C21 + C33 <= 1
  C22 + C33 <= 1
  C23 + C33 <= 1
  C24 + C33 <= 1
  C25 + C33 <= 1
  C26 + C33 <= 1
  C28 + C33 <= 1
  C29 + C33 <= 1
  C31 + C33 <= 1
  C32 + C33 <= 1
  C0 + C34 <= 1
  C2 + C34 <= 1
  C3 + C34 <= 1
  C5 + C34 <= 1
  C8 + C34 <= 1
  C9 + C34 <= 1
  C10 + C34 <= 1
  C12 + C34 <= 1
  C13 + C34 <= 1
  C14 + C34 <= 1
  C15 + C34 <= 1
  C16 + C34 <= 1
  C17 + C34 <= 1
  C18 + C34 <= 1
  C19 + C34 <= 1
  C20 + C34 <= 1
  C21 + C34 <= 1
  C22 + C34 <= 1
  C23 + C34 <= 1
  C24 + C34 <= 1
  C25 + C34 <= 1
  C26 + C34 <= 1
  C28 + C34 <= 1
  C29 + C34 <= 1
  C31 + C34 <= 1
  C32 + C34 <= 1
  C1 + C35 <= 1
  C4 + C35 <= 1
  C5 + C35 <= 1
  C6 + C35 <= 1
  C7 + C35 <= 1
  C10 + C35 <= 1
  C11 + C35 <= 1
  C13 + C35 <= 1
  C19 + C35 <= 1
  C22 + C35 <= 1
  C24 + C35 <= 1
  C27 + C35 <= 1
  C30 + C35 <= 1
  C32 + C35 <= 1
  C33 + C35 <= 1
  C34 + C35 <= 1
  C0 + C36 <= 1
  C2 + C36 <= 1
  C3 + C36 <= 1
  C5 + C36 <= 1
  C8 + C36 <= 1
  C9 + C36 <= 1
  C10 + C36 <= 1
  C12 + C36 <= 1
  C13 + C36 <= 1
  C14 + C36 <= 1
  C15 + C36 <= 1
  C16 + C36 <= 1
  C17 + C36 <= 1
  C18 + C36 <= 1
  C19 + C36 <= 1
  C20 + C36 <= 1
  C21 + C36 <= 1
  C22 + C36 <= 1
  C23 + C36 <= 1
  C24 + C36 <= 1
  C25 + C36 <= 1
  C26 + C36 <= 1
  C28 + C36 <= 1
  C29 + C36 <= 1
  C31 + C36 <= 1
  C32 + C36 <= 1
  C35 + C36 <= 1
  C1 + C37 <= 1
  C4 + C37 <= 1
  C5 + C37 <= 1
  C6 + C37 <= 1
  C7 + C37 <= 1
  C10 + C37 <= 1
  C11 + C37 <= 1
  C13 + C37 <= 1
  C19 + C37 <= 1
  C22 + C37 <= 1
  C24 + C37 <= 1
  C27 + C37 <= 1
  C30 + C37 <= 1
  C32 + C37 <= 1
  C33 + C37 <= 1
  C34 + C37 <= 1
  C36 + C37 <= 1
  C0 + C38 <= 1
  C2 + C38 <= 1
  C3 + C38 <= 1
  C5 + C38 <= 1
  C8 + C38 <= 1
  C9 + C38 <= 1
  C10 + C38 <= 1
  C12 + C38 <= 1
  C13 + C38 <= 1
  C14 + C38 <= 1
  C15 + C38 <= 1
  C16 + C38 <= 1
  C17 + C38 <= 1
  C18 + C38 <= 1
  C19 + C38 <= 1
  C20 + C38 <= 1
  C21 + C38 <= 1
  C22 + C38 <= 1
  C23 + C38 <= 1
  C24 + C38 <= 1
  C25 + C38 <= 1
  C26 + C38 <= 1
  C28 + C38 <= 1
  C29 + C38 <= 1
  C31 + C38 <= 1
  C32 + C38 <= 1
  C35 + C38 <= 1
  C37 + C38 <= 1
  C1 + C39 <= 1
  C4 + C39 <= 1
  C5 + C39 <= 1
  C6 + C39 <= 1
  C7 + C39 <= 1
  C10 + C39 <= 1
  C11 + C39 <= 1
  C13 + C39 <= 1
  C19 + C39 <= 1
  C22 + C39 <= 1
  C24 + C39 <= 1
  C27 + C39 <= 1
  C30 + C39 <= 1
  C32 + C39 <= 1
  C33 + C39 <= 1
  C34 + C39 <= 1
  C36 + C39 <= 1
  C38 + C39 <= 1
  C1 + C40 <= 1
  C4 + C40 <= 1
  C5 + C40 <= 1
  C6 + C40 <= 1
  C7 + C40 <= 1
  C10 + C40 <= 1
  C11 + C40 <= 1
  C13 + C40 <= 1
  C19 + C40 <= 1
  C22 + C40 <= 1
  C24 + C40 <= 1
  C27 + C40 <= 1
  C30 + C40 <= 1
  C32 + C40 <= 1
  C33 + C40 <= 1
  C34 + C40 <= 1
  C36 + C40 <= 1
  C38 + C40 <= 1
  C1 + C41 <= 1
  C4 + C41 <= 1
  C5 + C41 <= 1
  C6 + C41 <= 1
  C7 + C41 <= 1
  C10 + C41 <= 1
  C11 + C41 <= 1
  C13 + C41 <= 1
  C19 + C41 <= 1
  C22 + C41 <= 1
  C24 + C41 <= 1
  C27 + C41 <= 1
  C30 + C41 <= 1
  C32 + C41 <= 1
  C33 + C41 <= 1
  C34 + C41 <= 1
  C36 + C41 <= 1
  C38 + C41 <= 1
  C1 + C42 <= 1
  C4 + C42 <= 1
  C5 + C42 <= 1
  C6 + C42 <= 1
  C7 + C42 <= 1
  C10 + C42 <= 1
  C11 + C42 <= 1
  C13 + C42 <= 1
  C19 + C42 <= 1
  C22 + C42 <= 1
  C24 + C42 <= 1
  C27 + C42 <= 1
  C30 + C42 <= 1
  C32 + C42 <= 1
  C33 + C42 <= 1
  C34 + C42 <= 1
  C36 + C42 <= 1
  C38 + C42 <= 1
  C1 + C43 <= 1
  C4 + C43 <= 1
  C5 + C43 <= 1
  C6 + C43 <= 1
  C7 + C43 <= 1
  C10 + C43 <= 1
  C11 + C43 <= 1
  C13 + C43 <= 1
  C19 + C43 <= 1
  C22 + C43 <= 1
  C24 + C43 <= 1
  C27 + C43 <= 1
  C30 + C43 <= 1
  C32 + C43 <= 1
  C33 + C43 <= 1
  C34 + C43 <= 1
  C36 + C43 <= 1
  C38 + C43 <= 1
  C1 + C44 <= 1
  C4 + C44 <= 1
  C5 + C44 <= 1
  C6 + C44 <= 1
  C7 + C44 <= 1
  C10 + C44 <= 1
  C11 + C44 <= 1
  C13 + C44 <= 1
  C19 + C44 <= 1
  C22 + C44 <= 1
  C24 + C44 <= 1
  C27 + C44 <= 1
  C30 + C44 <= 1
  C32 + C44 <= 1
  C33 + C44 <= 1
  C34 + C44 <= 1
  C36 + C44 <= 1
  C38 + C44 <= 1
  C0 + C45 <= 1
  C2 + C45 <= 1
  C3 + C45 <= 1
  C5 + C45 <= 1
  C8 + C45 <= 1
  C9 + C45 <= 1
  C10 + C45 <= 1
  C12 + C45 <= 1
  C13 + C45 <= 1
  C14 + C45 <= 1
  C15 + C45 <= 1
  C16 + C45 <= 1
  C17 + C45 <= 1
  C18 + C45 <= 1
  C19 + C45 <= 1
  C20 + C45 <= 1
  C21 + C45 <= 1
  C22 + C45 <= 1
  C23 + C45 <= 1
  C24 + C45 <= 1
  C25 + C45 <= 1
  C26 + C45 <= 1
  C28 + C45 <= 1
  C29 + C45 <= 1
  C31 + C45 <= 1
  C32 + C45 <= 1
  C35 + C45 <= 1
  C37 + C45 <= 1
  C39 + C45 <= 1
  C40 + C45 <= 1
  C41 + C45 <= 1
  C42 + C45 <= 1
  C43 + C45 <= 1
  C44 + C45 <= 1
  C1 + C46 <= 1
  C4 + C46 <= 1
  C5 + C46 <= 1
  C6 + C46 <= 1
  C7 + C46 <= 1
  C10 + C46 <= 1
  C11 + C46 <= 1
  C13 + C46 <= 1
  C19 + C46 <= 1
  C22 + C46 <= 1
  C24 + C46 <= 1
  C27 + C46 <= 1
  C30 + C46 <= 1
  C32 + C46 <= 1
  C33 + C46 <= 1
  C34 + C46 <= 1
  C36 + C46 <= 1
  C38 + C46 <= 1
  C45 + C46 <= 1
  C0 + C47 <= 1
  C2 + C47 <= 1
  C3 + C47 <= 1
  C5 + C47 <= 1
  C8 + C47 <= 1
  C9 + C47 <= 1
  C10 + C47 <= 1
  C12 + C47 <= 1
  C13 + C47 <= 1
  C14 + C47 <= 1
  C15 + C47 <= 1
  C16 + C47 <= 1
  C17 + C47 <= 1
  C18 + C47 <= 1
  C19 + C47 <= 1
  C20 + C47 <= 1
  C21 + C47 <= 1
  C22 + C47 <= 1
  C23 + C47 <= 1
  C24 + C47 <= 1
  C25 + C47 <= 1
  C26 + C47 <= 1
  C28 + C47 <= 1
  C29 + C47 <= 1
  C31 + C47 <= 1
  C32 + C47 <= 1
  C35 + C47 <= 1
  C37 + C47 <= 1
  C39 + C47 <= 1
  C40 + C47 <= 1
  C41 + C47 <= 1
  C42 + C47 <= 1
  C43 + C47 <= 1
  C44 + C47 <= 1
  C46 + C47 <= 1
  C0 + C48 <= 1
  C2 + C48 <= 1
  C3 + C48 <= 1
  C5 + C48 <= 1
  C8 + C48 <= 1
  C9 + C48 <= 1
  C10 + C48 <= 1
  C12 + C48 <= 1
  C13 + C48 <= 1
  C14 + C48 <= 1
  C15 + C48 <= 1
  C16 + C48 <= 1
  C17 + C48 <= 1
  C18 + C48 <= 1
  C19 + C48 <= 1
  C20 + C48 <= 1
  C21 + C48 <= 1
  C22 + C48 <= 1
  C23 + C48 <= 1
  C24 + C48 <= 1
  C25 + C48 <= 1
  C26 + C48 <= 1
  C28 + C48 <= 1
  C29 + C48 <= 1
  C31 + C48 <= 1
  C32 + C48 <= 1
  C35 + C48 <= 1
  C37 + C48 <= 1
  C39 + C48 <= 1
  C40 + C48 <= 1
  C41 + C48 <= 1
  C42 + C48 <= 1
  C43 + C48 <= 1
  C44 + C48 <= 1
  C46 + C48 <= 1
  C0 + C49 <= 1
  C2 + C49 <= 1
  C3 + C49 <= 1
  C5 + C49 <= 1
  C8 + C49 <= 1
  C9 + C49 <= 1
  C10 + C49 <= 1
  C12 + C49 <= 1
  C13 + C49 <= 1
  C14 + C49 <= 1
  C15 + C49 <= 1
  C16 + C49 <= 1
  C17 + C49 <= 1
  C18 + C49 <= 1
  C19 + C49 <= 1
  C20 + C49 <= 1
  C21 + C49 <= 1
  C22 + C49 <= 1
  C23 + C49 <= 1
  C24 + C49 <= 1
  C25 + C49 <= 1
  C26 + C49 <= 1
  C28 + C49 <= 1
  C29 + C49 <= 1
  C31 + C49 <= 1
  C32 + C49 <= 1
  C35 + C49 <= 1
  C37 + C49 <= 1
  C39 + C49 <= 1
  C40 + C49 <= 1
  C41 + C49 <= 1
  C42 + C49 <= 1
  C43 + C49 <= 1
  C44 + C49 <= 1
  C46 + C49 <= 1
  C0 + C50 <= 1
  C2 + C50 <= 1
  C3 + C50 <= 1
  C5 + C50 <= 1
  C8 + C50 <= 1
  C9 + C50 <= 1
  C10 + C50 <= 1
  C12 + C50 <= 1
  C13 + C50 <= 1
  C14 + C50 <= 1
  C15 + C50 <= 1
  C16 + C50 <= 1
  C17 + C50 <= 1
  C18 + C50 <= 1
  C19 + C50 <= 1
  C20 + C50 <= 1
  C21 + C50 <= 1
  C22 + C50 <= 1
  C23 + C50 <= 1
  C24 + C50 <= 1
  C25 + C50 <= 1
  C26 + C50 <= 1
  C28 + C50 <= 1
  C29 + C50 <= 1
  C31 + C50 <= 1
  C32 + C50 <= 1
  C35 + C50 <= 1
  C37 + C50 <= 1
  C39 + C50 <= 1
  C40 + C50 <= 1
  C41 + C50 <= 1
  C42 + C50 <= 1
  C43 + C50 <= 1
  C44 + C50 <= 1
  C46 + C50 <= 1
  C1 + C51 <= 1
  C4 + C51 <= 1
  C5 + C51 <= 1
  C6 + C51 <= 1
  C7 + C51 <= 1
  C10 + C51 <= 1
  C11 + C51 <= 1
  C13 + C51 <= 1
  C19 + C51 <= 1
  C22 + C51 <= 1
  C24 + C51 <= 1
  C27 + C51 <= 1
  C30 + C51 <= 1
  C32 + C51 <= 1
  C33 + C51 <= 1
  C34 + C51 <= 1
  C36 + C51 <= 1
  C38 + C51 <= 1
  C45 + C51 <= 1
  C47 + C51 <= 1
  C48 + C51 <= 1
  C49 + C51 <= 1
  C50 + C51 <= 1
  C1 + C52 <= 1
  C4 + C52 <= 1
  C5 + C52 <= 1
  C6 + C52 <= 1
  C7 + C52 <= 1
  C10 + C52 <= 1
  C11 + C52 <= 1
  C13 + C52 <= 1
  C19 + C52 <= 1
  C22 + C52 <= 1
  C24 + C52 <= 1
  C27 + C52 <= 1
  C30 + C52 <= 1
  C32 + C52 <= 1
  C33 + C52 <= 1
  C34 + C52 <= 1
  C36 + C52 <= 1
  C38 + C52 <= 1
  C45 + C52 <= 1
  C47 + C52 <= 1
  C48 + C52 <= 1
  C49 + C52 <= 1
  C50 + C52 <= 1
  C0 + C53 <= 1
  C1 + C53 <= 1
  C2 + C53 <= 1
  C3 + C53 <= 1
  C4 + C53 <= 1
  C6 + C53 <= 1
  C7 + C53 <= 1
  C8 + C53 <= 1
  C9 + C53 <= 1
  C10 + C53 <= 1
  C11 + C53 <= 1
  C12 + C53 <= 1
  C14 + C53 <= 1
  C15 + C53 <= 1
  C16 + C53 <= 1
  C17 + C53 <= 1
  C18 + C53 <= 1
  C19 + C53 <= 1
  C20 + C53 <= 1
  C21 + C53 <= 1
  C22 + C53 <= 1
  C23 + C53 <= 1
  C25 + C53 <= 1
  C26 + C53 <= 1
  C27 + C53 <= 1
  C28 + C53 <= 1
  C29 + C53 <= 1
  C30 + C53 <= 1
  C31 + C53 <= 1
  C32 + C53 <= 1
  C33 + C53 <= 1
  C34 + C53 <= 1
  C35 + C53 <= 1
  C36 + C53 <= 1
  C37 + C53 <= 1
  C38 + C53 <= 1
  C39 + C53 <= 1
  C40 + C53 <= 1
  C41 + C53 <= 1
  C42 + C53 <= 1
  C43 + C53 <= 1
  C44 + C53 <= 1
  C45 + C53 <= 1
  C46 + C53 <= 1
  C47 + C53 <= 1
  C48 + C53 <= 1
  C49 + C53 <= 1
  C50 + C53 <= 1
  C51 + C53 <= 1
  C52 + C53 <= 1
  C0 + C54 <= 1
  C2 + C54 <= 1
  C3 + C54 <= 1
  C5 + C54 <= 1
  C8 + C54 <= 1
  C9 + C54 <= 1
  C10 + C54 <= 1
  C12 + C54 <= 1
  C13 + C54 <= 1
  C14 + C54 <= 1
  C15 + C54 <= 1
  C16 + C54 <= 1
  C17 + C54 <= 1
  C18 + C54 <= 1
  C19 + C54 <= 1
  C20 + C54 <= 1
  C21 + C54 <= 1
  C22 + C54 <= 1
  C23 + C54 <= 1
  C24 + C54 <= 1
  C25 + C54 <= 1
  C26 + C54 <= 1
  C28 + C54 <= 1
  C29 + C54 <= 1
  C31 + C54 <= 1
  C32 + C54 <= 1
  C35 + C54 <= 1
  C37 + C54 <= 1
  C39 + C54 <= 1
  C40 + C54 <= 1
  C41 + C54 <= 1
  C42 + C54 <= 1
  C43 + C54 <= 1
  C44 + C54 <= 1
  C46 + C54 <= 1
  C51 + C54 <= 1
  C52 + C54 <= 1
  C53 + C54 <= 1
  C1 + C55 <= 1
  C4 + C55 <= 1
  C5 + C55 <= 1
  C6 + C55 <= 1
  C7 + C55 <= 1
  C10 + C55 <= 1
  C11 + C55 <= 1
  C13 + C55 <= 1
  C19 + C55 <= 1
  C22 + C55 <= 1
  C24 + C55 <= 1
  C27 + C55 <= 1
  C30 + C55 <= 1
  C32 + C55 <= 1
  C33 + C55 <= 1
  C34 + C55 <= 1
  C36 + C55 <= 1
  C38 + C55 <= 1
  C45 + C55 <= 1
  C47 + C55 <= 1
  C48 + C55 <= 1
  C49 + C55 <= 1
  C50 + C55 <= 1
  C53 + C55 <= 1
  C54 + C55 <= 1
Bounds
Binaries
 C0 C1 C2 C3 C4 C5 C6 C7 C8 C9 C10 C11 C12 C13
 C14 C15 C16 C17 C18 C19 C20 C21 C22 C23 C24 C25
 C26 C27 C28 C29 C30 C31 C32 C33 C34 C35 C36 C37
 C38 C39 C40 C41 C42 C43 C44 C45 C46 C47 C48 C49
 C50 C51 C52 C53 C54 C55
End
